59 64 
9 53 
46 40 
9 36 
34 41 
17 79 
40 97 
21 94 
35 88 
12 23 
4 32 
31 75 
32 10 
56 40 
21 91 
84 33 
7 94 
86 53 
34 48 
41 20 
89 58 
99 29 
55 72 
76 91 
13 88 
66 69 
72 97 
44 56 
60 52 
96 33 
96 81 
66 3 
75 5 
57 61 
53 98 
34 94 
57 85 
76 64 
58 52 
55 23 
40 74 
92 64 
71 37 
20 83 
89 17 
17 85 
98 83 
89 25 
40 98 
86 93 
